NAME : instances/clustered-diverse-tsp/instance-17.tsp
COMMENT : No Comment
TYPE : TSP
DIMENSION: 50
EDGE_WEIGHT_TYPE : EUC_2D
NODE_COORD_SECTION
1 1840 358 
2 96 1142 
3 -20 397 
4 488 864 
5 1729 357 
6 1072 1172 
7 178 991 
8 1889 2014 
9 61 370 
10 1830 296 
11 140 1138 
12 -48 309 
13 188 1147 
14 1810 276 
15 1169 1060 
16 -49 812 
17 1916 1906 
18 1902 625 
19 404 911 
20 1 469 
21 -11 468 
22 52 227 
23 -59 487 
24 434 826 
25 1849 2074 
26 1666 288 
27 1914 2084 
28 -52 400 
29 1695 436 
30 35 423 
31 157 1070 
32 183 1158 
33 535 953 
34 31 422 
35 1907 2012 
36 1762 316 
37 1064 1026 
38 -63 823 
39 1774 339 
40 181 1116 
41 1140 1172 
42 547 948 
43 75 444 
44 1112 1146 
45 33 933 
46 40 339 
47 68 492 
48 1777 437 
49 1839 398 
50 477 837 
EOF
